
Gurobi 11.0.0 (linux64) logging started Wed Apr 10 22:00:47 2024

Set parameter LogFile to value "/lustre1/scratch/348/vsc34888/JointResearch/05.Models/06.Benchmarking/B.Operation_cost/RTS24_ByStages_nc90/openStarNet_RTS24_ByStages_nc90.log"
Set parameter Method to value 2
Set parameter MIPFocus to value 1
Set parameter Presolve to value 2
Set parameter RINS to value 100
Set parameter MIPGap to value 0.01
Set parameter Threads to value 36
Set parameter TimeLimit to value 259200
Set parameter IterationLimit to value 760000000
Gurobi Optimizer version 11.0.0 build v11.0.0rc2 (linux64 - "Rocky Linux 8.8 (Green Obsidian)")

CPU model: Intel(R) Xeon(R) Gold 6140 CPU @ 2.30GHz, instruction set [SSE2|AVX|AVX2|AVX512]
Thread count: 36 physical cores, 36 logical processors, using up to 36 threads

Optimize a model with 35013 rows, 20957 columns and 93470 nonzeros
Model fingerprint: 0x8f7161ab
Variable types: 20927 continuous, 30 integer (30 binary)
Coefficient statistics:
  Matrix range     [2e-02, 6e+02]
  Objective range  [1e+00, 1e+00]
  Bounds range     [4e-04, 3e+00]
  RHS range        [4e-04, 3e+00]
Presolve removed 18791 rows and 9876 columns
Presolve time: 0.23s
Presolved: 16222 rows, 11081 columns, 57153 nonzeros
Variable types: 11051 continuous, 30 integer (30 binary)
Found heuristic solution: objective 346.2551271
Root relaxation presolved: 16222 rows, 11081 columns, 57153 nonzeros

Root barrier log...

Ordering time: 0.01s

Barrier statistics:
 Dense cols : 30
 AA' NZ     : 1.200e+05
 Factor NZ  : 3.127e+05 (roughly 14 MB of memory)
 Factor Ops : 6.659e+06 (less than 1 second per iteration)
 Threads    : 36

                  Objective                Residual
Iter       Primal          Dual         Primal    Dual     Compl     Time
   0   7.89314919e+05 -1.14971171e+08  6.15e+00 3.03e+02  9.78e+03     0s
   1   1.34623224e+05 -3.27601391e+07  8.38e-01 1.86e-09  1.43e+03     0s
   2   4.83773937e+04 -5.04195085e+06  1.41e-01 1.33e-09  1.76e+02     0s
   3   2.65787304e+04 -4.97216513e+05  2.83e-03 1.84e-10  1.54e+01     0s
   4   1.05054085e+04 -6.17462495e+04  5.13e-05 1.66e-11  2.12e+00     0s
   5   3.02348102e+03 -1.61172217e+04  1.26e-05 3.64e-12  5.61e-01     1s
   6   9.90965545e+02 -3.70456763e+03  2.63e-06 1.82e-12  1.38e-01     1s
   7   5.68291938e+02 -8.59951103e+02  9.18e-07 3.64e-12  4.18e-02     1s
   8   3.84839783e+02 -1.32961757e+02  4.19e-07 1.82e-12  1.52e-02     1s
   9   2.98220861e+02  2.97176373e+01  2.25e-07 9.09e-13  7.87e-03     1s
  10   2.45700782e+02  1.20508019e+02  1.15e-07 1.82e-12  3.67e-03     1s
  11   2.09209264e+02  1.59572197e+02  4.27e-08 1.82e-12  1.45e-03     1s
  12   1.97649085e+02  1.73240726e+02  2.05e-08 9.09e-13  7.15e-04     1s
  13   1.94083297e+02  1.76734139e+02  1.37e-08 1.82e-12  5.08e-04     1s
  14   1.92982782e+02  1.80604243e+02  1.15e-08 1.82e-12  3.63e-04     1s
  15   1.90551772e+02  1.83084242e+02  6.55e-09 1.82e-12  2.19e-04     1s
  16   1.88986104e+02  1.84474407e+02  3.48e-09 1.82e-12  1.32e-04     1s
  17   1.88315858e+02  1.85746137e+02  2.13e-09 1.82e-12  7.53e-05     1s
  18   1.87849456e+02  1.86706697e+02  1.24e-09 1.82e-12  3.35e-05     1s
  19   1.87387860e+02  1.86814500e+02  3.49e-10 4.55e-13  1.68e-05     1s
  20   1.87276599e+02  1.87085448e+02  1.37e-10 3.64e-12  5.60e-06     1s
  21   1.87223717e+02  1.87166218e+02  1.11e-10 1.82e-12  1.68e-06     1s
  22   1.87206005e+02  1.87197823e+02  1.46e-10 1.82e-12  2.40e-07     1s
  23   1.87203850e+02  1.87202223e+02  1.60e-09 1.82e-12  4.77e-08     1s
  24   1.87203344e+02  1.87202928e+02  4.51e-10 1.82e-12  1.22e-08     1s
  25   1.87203258e+02  1.87203153e+02  2.44e-10 1.82e-12  3.06e-09     1s
  26   1.87203200e+02  1.87203195e+02  4.40e-10 1.82e-12  1.45e-10     1s
  27   1.87203199e+02  1.87203197e+02  2.24e-10 4.31e-12  4.35e-11     1s

Barrier solved model in 27 iterations and 0.71 seconds (0.66 work units)
Optimal objective 1.87203199e+02


Root relaxation: objective 1.872032e+02, 2533 iterations, 0.47 seconds (0.28 work units)

    Nodes    |    Current Node    |     Objective Bounds      |     Work
 Expl Unexpl |  Obj  Depth IntInf | Incumbent    BestBd   Gap | It/Node Time

     0     0  187.20320    0   21  346.25513  187.20320  45.9%     -    1s
H    0     0                     257.4385096  190.46602  26.0%     -    2s
     0     0  190.58051    0   19  257.43851  190.58051  26.0%     -    2s
     0     0  190.58051    0   19  257.43851  190.58051  26.0%     -    2s
     0     0  190.58051    0   19  257.43851  190.58051  26.0%     -    2s
     0     0  190.97305    0   17  257.43851  190.97305  25.8%     -    2s
     0     0  190.99494    0   17  257.43851  190.99494  25.8%     -    3s
     0     0  191.00274    0   20  257.43851  191.00274  25.8%     -    3s
     0     0  191.01473    0   19  257.43851  191.01473  25.8%     -    3s
     0     0  191.01473    0   19  257.43851  191.01473  25.8%     -    3s
     0     0  191.03941    0   18  257.43851  191.03941  25.8%     -    4s
     0     0  191.25245    0   14  257.43851  191.25245  25.7%     -    4s
     0     0  191.25245    0   14  257.43851  191.25245  25.7%     -    4s
     0     0  192.19579    0   13  257.43851  192.19579  25.3%     -    4s
     0     0  192.19579    0   13  257.43851  192.19579  25.3%     -    4s
     0     0  192.19579    0   13  257.43851  192.19579  25.3%     -    4s
     0     0  193.84753    0   13  257.43851  193.84753  24.7%     -    6s
H    0     0                     253.7518367  193.84753  23.6%     -    6s
H    0     0                     250.8607074  193.84753  22.7%     -    7s
H    0     0                     221.8514074  193.84753  12.6%     -   18s
     0     2  193.84753    0   13  221.85141  193.84753  12.6%     -   19s
     7    16  193.84753    3   19  221.85141  193.84753  12.6%  1212   20s
H   97   130                     220.2632686  197.46636  10.3%   745   43s
H  101   130                     220.1296002  197.46636  10.3%   743   43s
   298   286     cutoff   11       220.12960  197.60200  10.2%   555   45s
   400   342     cutoff   12       220.12960  198.24455  9.94%   517   83s
H  404   342                     220.0161100  198.24455  9.90%   516   83s
H  408   342                     219.8673717  198.24455  9.83%   516   83s
   598   428  205.56608   10   13  219.86737  198.24455  9.83%   473  112s
   998   545  217.65821   15    8  219.86737  198.24455  9.83%   450  147s
  1500   559     cutoff   17       219.86737  199.79033  9.13%   422  184s
  1576   561  205.73550    9   11  219.86737  199.79033  9.13%   422  193s
  2184   698  204.01758   10   12  219.86737  203.47114  7.46%   395  195s
  4100   967     cutoff   15       219.86737  206.46408  6.10%   341  239s
  4277  1049     cutoff   14       219.86737  208.83274  5.02%   340  240s
  6666  1418  217.06224   15    6  219.86737  210.98852  4.04%   305  245s
  8877  1638  219.73871   19    3  219.86737  212.60316  3.30%   286  267s
 10277  1756  219.51736   19    3  219.86737  213.36378  2.96%   277  291s
 11874  1871     cutoff   18       219.86737  214.13164  2.61%   265  313s
 12776  1904     cutoff   15       219.86737  214.43977  2.47%   261  341s
 15052  1920     cutoff   19       219.86737  215.06413  2.18%   250  345s
 17666  1744     cutoff   20       219.86737  216.03604  1.74%   241  368s
 18885  1586     cutoff   13       219.86737  216.34115  1.60%   238  388s
 20045  1230     cutoff   17       219.86737  216.58985  1.49%   235  408s
 21820   485  218.71118   14    8  219.86737  217.06275  1.28%   231  411s

Cutting planes:
  Gomory: 4
  Implied bound: 67
  MIR: 567
  Relax-and-lift: 23

Explored 23948 nodes (5372363 simplex iterations) in 411.23 seconds (458.58 work units)
Thread count was 36 (of 36 available processors)

Solution count 9: 219.867 220.016 220.13 ... 346.255

Optimal solution found (tolerance 1.00e-02)
Best objective 2.198673717113e+02, best bound 2.177858145139e+02, gap 0.9467%

Gurobi 11.0.0 (linux64) logging started Wed Apr 10 22:07:43 2024

Set parameter LogFile to value "/lustre1/scratch/348/vsc34888/JointResearch/05.Models/06.Benchmarking/B.Operation_cost/RTS24_ByStages_nc90/openStarNet_RTS24_ByStages_nc90.log"
Set parameter Method to value 2
Set parameter MIPFocus to value 1
Set parameter Presolve to value 2
Set parameter RINS to value 100
Set parameter MIPGap to value 0.01
Set parameter Threads to value 36
Set parameter TimeLimit to value 259200
Set parameter IterationLimit to value 760000000
Gurobi Optimizer version 11.0.0 build v11.0.0rc2 (linux64 - "Rocky Linux 8.8 (Green Obsidian)")

CPU model: Intel(R) Xeon(R) Gold 6140 CPU @ 2.30GHz, instruction set [SSE2|AVX|AVX2|AVX512]
Thread count: 36 physical cores, 36 logical processors, using up to 36 threads

Optimize a model with 35013 rows, 20927 columns and 82640 nonzeros
Model fingerprint: 0x6a2d4a19
Coefficient statistics:
  Matrix range     [2e-02, 6e+02]
  Objective range  [1e+00, 1e+00]
  Bounds range     [4e-04, 3e+00]
  RHS range        [4e-04, 5e+01]
Presolve removed 29771 rows and 12036 columns
Presolve time: 0.04s
Presolved: 5242 rows, 8981 columns, 23223 nonzeros

Ordering time: 0.00s

Barrier statistics:
 AA' NZ     : 1.312e+04
 Factor NZ  : 4.074e+04 (roughly 5 MB of memory)
 Factor Ops : 5.083e+05 (less than 1 second per iteration)
 Threads    : 1

                  Objective                Residual
Iter       Primal          Dual         Primal    Dual     Compl     Time
   0   3.86654997e+06 -8.59157056e+07  1.59e+01 9.74e+02  9.25e+04     0s
   1   2.47250682e+05 -7.00079506e+07  8.84e-01 5.02e-11  9.09e+03     0s
   2   7.07138051e+04 -2.04704719e+07  1.78e-01 9.79e-11  1.82e+03     0s
   3   3.88874519e+04 -3.74168377e+06  3.14e-02 5.21e-11  2.84e+02     0s
   4   2.90486933e+04 -1.86937483e+05  2.99e-11 2.18e-11  1.50e+01     0s
   5   1.40543172e+04 -6.53562873e+04  4.97e-12 1.46e-11  5.52e+00     0s
   6   4.85340982e+03 -2.53477755e+04  1.63e-12 3.64e-12  2.10e+00     0s
   7   1.16077403e+03 -7.00329196e+03  1.68e-12 3.64e-12  5.67e-01     0s
   8   4.53770797e+02 -1.33196282e+03  4.60e-12 3.64e-12  1.24e-01     0s
   9   3.38329702e+02 -2.95933412e+02  3.30e-12 1.82e-12  4.41e-02     0s
  10   2.95942216e+02 -3.31858795e+01  1.45e-12 7.28e-12  2.29e-02     0s
  11   2.65719421e+02  1.15113068e+02  2.26e-12 7.28e-12  1.05e-02     0s
  12   2.44583601e+02  1.76624180e+02  3.25e-12 3.64e-12  4.72e-03     0s
  13   2.27531829e+02  2.06711359e+02  1.08e-11 7.28e-12  1.45e-03     0s
  14   2.21045641e+02  2.17851749e+02  4.76e-12 7.28e-12  2.22e-04     0s
  15   2.20094247e+02  2.19541543e+02  4.23e-12 3.64e-12  3.84e-05     0s
  16   2.19940589e+02  2.19772149e+02  1.56e-11 7.28e-12  1.17e-05     0s
  17   2.19878843e+02  2.19846080e+02  2.60e-10 3.64e-12  2.28e-06     0s
  18   2.19867755e+02  2.19864719e+02  9.99e-11 7.28e-12  2.11e-07     0s
  19   2.19867390e+02  2.19867333e+02  1.66e-10 7.28e-12  3.98e-09     0s
  20   2.19867372e+02  2.19867372e+02  1.05e-10 1.46e-11  3.98e-12     0s
  21   2.19867372e+02  2.19867372e+02  3.51e-11 7.28e-12  3.98e-15     0s

Barrier solved model in 21 iterations and 0.12 seconds (0.10 work units)
Optimal objective 2.19867372e+02

Crossover log...

     969 DPushes remaining with DInf 0.0000000e+00                 0s
       0 DPushes remaining with DInf 0.0000000e+00                 0s

     349 PPushes remaining with PInf 0.0000000e+00                 0s
       0 PPushes remaining with PInf 0.0000000e+00                 0s

  Push phase complete: Pinf 0.0000000e+00, Dinf 2.0216310e-12      0s

Iteration    Objective       Primal Inf.    Dual Inf.      Time
     376    2.1986737e+02   0.000000e+00   0.000000e+00      0s

Use crossover to convert LP symmetric solution to basic solution...
Crossover log...

       0 DPushes remaining with DInf 0.0000000e+00                 0s

     179 PPushes remaining with PInf 0.0000000e+00                 0s
       0 PPushes remaining with PInf 0.0000000e+00                 0s

  Push phase complete: Pinf 0.0000000e+00, Dinf 2.5193478e-12      0s

Iteration    Objective       Primal Inf.    Dual Inf.      Time
     559    2.1986737e+02   0.000000e+00   0.000000e+00      0s

Solved in 559 iterations and 0.16 seconds (0.13 work units)
Optimal objective  2.198673717e+02
